p cnf 13 23
-12 0
-13 0
-2 0
4 0
6 0
-3 0
-2 0
-9 11 -8 -10 0
9 -11 -8 -10 0
9 11 8 -10 0
-9 -11 8 -10 0
9 11 -8 10 0
-9 -11 -8 10 0
-9 11 8 10 0
9 -11 8 10 0
6 0
-12 0
6 0
-12 0
6 0
-12 0
-9 -11 0
-12 0
